27807
26133
26871
26478
28150
27061
26665
26719
26685
28537
28339
26568
28280
27150
28259
26805
28244
27211
27955
26355
28016
26785
27233
27387
26233
26288
26678
28692
26839
25647
27489
27579
28240
26466
26571
27382
28087
27351
25878
26309
26224
27904
26871
25525
26484
26955
27214
26432
26979
25420
25943
27333
26486
26131
27176
27682
26741
25778
27915
26782
27027
26601
27015
26155
26288
26259
28373
25760
26728
26478
26263
27822
26326
28075
27224
28320
27757
27381
28086
27202
26207
26743
27212
28504
24698
26912
27131
26798
28109
26709
27462
26908
28349
26427
28566
27342
26462
26523
27382
27656
